c description: Tseitin formula on Random 6-regular graph of 27 vertices, with odd charge
c generator: CNFgen (0.9.2)
c copyright: (C) 2012-2022 Massimo Lauria <massimo.lauria@uniroma1.it>
c url: https://massimolauria.net/cnfgen
c command line: cnfgen tseitin 27 6
c
p cnf 81 864
1 2 3 4 5 6 0
1 2 3 4 -5 -6 0
1 2 3 -4 5 -6 0
1 2 3 -4 -5 6 0
1 2 -3 4 5 -6 0
1 2 -3 4 -5 6 0
1 2 -3 -4 5 6 0
1 2 -3 -4 -5 -6 0
1 -2 3 4 5 -6 0
1 -2 3 4 -5 6 0
1 -2 3 -4 5 6 0
1 -2 3 -4 -5 -6 0
1 -2 -3 4 5 6 0
1 -2 -3 4 -5 -6 0
1 -2 -3 -4 5 -6 0
1 -2 -3 -4 -5 6 0
-1 2 3 4 5 -6 0
-1 2 3 4 -5 6 0
-1 2 3 -4 5 6 0
-1 2 3 -4 -5 -6 0
-1 2 -3 4 5 6 0
-1 2 -3 4 -5 -6 0
-1 2 -3 -4 5 -6 0
-1 2 -3 -4 -5 6 0
-1 -2 3 4 5 6 0
-1 -2 3 4 -5 -6 0
-1 -2 3 -4 5 -6 0
-1 -2 3 -4 -5 6 0
-1 -2 -3 4 5 -6 0
-1 -2 -3 4 -5 6 0
-1 -2 -3 -4 5 6 0
-1 -2 -3 -4 -5 -6 0
7 8 9 10 11 12 0
7 8 9 10 -11 -12 0
7 8 9 -10 11 -12 0
7 8 9 -10 -11 12 0
7 8 -9 10 11 -12 0
7 8 -9 10 -11 12 0
7 8 -9 -10 11 12 0
7 8 -9 -10 -11 -12 0
7 -8 9 10 11 -12 0
7 -8 9 10 -11 12 0
7 -8 9 -10 11 12 0
7 -8 9 -10 -11 -12 0
7 -8 -9 10 11 12 0
7 -8 -9 10 -11 -12 0
7 -8 -9 -10 11 -12 0
7 -8 -9 -10 -11 12 0
-7 8 9 10 11 -12 0
-7 8 9 10 -11 12 0
-7 8 9 -10 11 12 0
-7 8 9 -10 -11 -12 0
-7 8 -9 10 11 12 0
-7 8 -9 10 -11 -12 0
-7 8 -9 -10 11 -12 0
-7 8 -9 -10 -11 12 0
-7 -8 9 10 11 12 0
-7 -8 9 10 -11 -12 0
-7 -8 9 -10 11 -12 0
-7 -8 9 -10 -11 12 0
-7 -8 -9 10 11 -12 0
-7 -8 -9 10 -11 12 0
-7 -8 -9 -10 11 12 0
-7 -8 -9 -10 -11 -12 0
1 13 14 15 16 17 0
1 13 14 15 -16 -17 0
1 13 14 -15 16 -17 0
1 13 14 -15 -16 17 0
1 13 -14 15 16 -17 0
1 13 -14 15 -16 17 0
1 13 -14 -15 16 17 0
1 13 -14 -15 -16 -17 0
1 -13 14 15 16 -17 0
1 -13 14 15 -16 17 0
1 -13 14 -15 16 17 0
1 -13 14 -15 -16 -17 0
1 -13 -14 15 16 17 0
1 -13 -14 15 -16 -17 0
1 -13 -14 -15 16 -17 0
1 -13 -14 -15 -16 17 0
-1 13 14 15 16 -17 0
-1 13 14 15 -16 17 0
-1 13 14 -15 16 17 0
-1 13 14 -15 -16 -17 0
-1 13 -14 15 16 17 0
-1 13 -14 15 -16 -17 0
-1 13 -14 -15 16 -17 0
-1 13 -14 -15 -16 17 0
-1 -13 14 15 16 17 0
-1 -13 14 15 -16 -17 0
-1 -13 14 -15 16 -17 0
-1 -13 14 -15 -16 17 0
-1 -13 -14 15 16 -17 0
-1 -13 -14 15 -16 17 0
-1 -13 -14 -15 16 17 0
-1 -13 -14 -15 -16 -17 0
7 18 19 20 21 -22 0
7 18 19 20 -21 22 0
7 18 19 -20 21 22 0
7 18 19 -20 -21 -22 0
7 18 -19 20 21 22 0
7 18 -19 20 -21 -22 0
7 18 -19 -20 21 -22 0
7 18 -19 -20 -21 22 0
7 -18 19 20 21 22 0
7 -18 19 20 -21 -22 0
7 -18 19 -20 21 -22 0
7 -18 19 -20 -21 22 0
7 -18 -19 20 21 -22 0
7 -18 -19 20 -21 22 0
7 -18 -19 -20 21 22 0
7 -18 -19 -20 -21 -22 0
-7 18 19 20 21 22 0
-7 18 19 20 -21 -22 0
-7 18 19 -20 21 -22 0
-7 18 19 -20 -21 22 0
-7 18 -19 20 21 -22 0
-7 18 -19 20 -21 22 0
-7 18 -19 -20 21 22 0
-7 18 -19 -20 -21 -22 0
-7 -18 19 20 21 -22 0
-7 -18 19 20 -21 22 0
-7 -18 19 -20 21 22 0
-7 -18 19 -20 -21 -22 0
-7 -18 -19 20 21 22 0
-7 -18 -19 20 -21 -22 0
-7 -18 -19 -20 21 -22 0
-7 -18 -19 -20 -21 22 0
8 23 24 25 26 -27 0
8 23 24 25 -26 27 0
8 23 24 -25 26 27 0
8 23 24 -25 -26 -27 0
8 23 -24 25 26 27 0
8 23 -24 25 -26 -27 0
8 23 -24 -25 26 -27 0
8 23 -24 -25 -26 27 0
8 -23 24 25 26 27 0
8 -23 24 25 -26 -27 0
8 -23 24 -25 26 -27 0
8 -23 24 -25 -26 27 0
8 -23 -24 25 26 -27 0
8 -23 -24 25 -26 27 0
8 -23 -24 -25 26 27 0
8 -23 -24 -25 -26 -27 0
-8 23 24 25 26 27 0
-8 23 24 25 -26 -27 0
-8 23 24 -25 26 -27 0
-8 23 24 -25 -26 27 0
-8 23 -24 25 26 -27 0
-8 23 -24 25 -26 27 0
-8 23 -24 -25 26 27 0
-8 23 -24 -25 -26 -27 0
-8 -23 24 25 26 -27 0
-8 -23 24 25 -26 27 0
-8 -23 24 -25 26 27 0
-8 -23 24 -25 -26 -27 0
-8 -23 -24 25 26 27 0
-8 -23 -24 25 -26 -27 0
-8 -23 -24 -25 26 -27 0
-8 -23 -24 -25 -26 27 0
2 28 29 30 31 32 0
2 28 29 30 -31 -32 0
2 28 29 -30 31 -32 0
2 28 29 -30 -31 32 0
2 28 -29 30 31 -32 0
2 28 -29 30 -31 32 0
2 28 -29 -30 31 32 0
2 28 -29 -30 -31 -32 0
2 -28 29 30 31 -32 0
2 -28 29 30 -31 32 0
2 -28 29 -30 31 32 0
2 -28 29 -30 -31 -32 0
2 -28 -29 30 31 32 0
2 -28 -29 30 -31 -32 0
2 -28 -29 -30 31 -32 0
2 -28 -29 -30 -31 32 0
-2 28 29 30 31 -32 0
-2 28 29 30 -31 32 0
-2 28 29 -30 31 32 0
-2 28 29 -30 -31 -32 0
-2 28 -29 30 31 32 0
-2 28 -29 30 -31 -32 0
-2 28 -29 -30 31 -32 0
-2 28 -29 -30 -31 32 0
-2 -28 29 30 31 32 0
-2 -28 29 30 -31 -32 0
-2 -28 29 -30 31 -32 0
-2 -28 29 -30 -31 32 0
-2 -28 -29 30 31 -32 0
-2 -28 -29 30 -31 32 0
-2 -28 -29 -30 31 32 0
-2 -28 -29 -30 -31 -32 0
33 34 35 36 37 -38 0
33 34 35 36 -37 38 0
33 34 35 -36 37 38 0
33 34 35 -36 -37 -38 0
33 34 -35 36 37 38 0
33 34 -35 36 -37 -38 0
33 34 -35 -36 37 -38 0
33 34 -35 -36 -37 38 0
33 -34 35 36 37 38 0
33 -34 35 36 -37 -38 0
33 -34 35 -36 37 -38 0
33 -34 35 -36 -37 38 0
33 -34 -35 36 37 -38 0
33 -34 -35 36 -37 38 0
33 -34 -35 -36 37 38 0
33 -34 -35 -36 -37 -38 0
-33 34 35 36 37 38 0
-33 34 35 36 -37 -38 0
-33 34 35 -36 37 -38 0
-33 34 35 -36 -37 38 0
-33 34 -35 36 37 -38 0
-33 34 -35 36 -37 38 0
-33 34 -35 -36 37 38 0
-33 34 -35 -36 -37 -38 0
-33 -34 35 36 37 -38 0
-33 -34 35 36 -37 38 0
-33 -34 35 -36 37 38 0
-33 -34 35 -36 -37 -38 0
-33 -34 -35 36 37 38 0
-33 -34 -35 36 -37 -38 0
-33 -34 -35 -36 37 -38 0
-33 -34 -35 -36 -37 38 0
28 33 39 40 41 42 0
28 33 39 40 -41 -42 0
28 33 39 -40 41 -42 0
28 33 39 -40 -41 42 0
28 33 -39 40 41 -42 0
28 33 -39 40 -41 42 0
28 33 -39 -40 41 42 0
28 33 -39 -40 -41 -42 0
28 -33 39 40 41 -42 0
28 -33 39 40 -41 42 0
28 -33 39 -40 41 42 0
28 -33 39 -40 -41 -42 0
28 -33 -39 40 41 42 0
28 -33 -39 40 -41 -42 0
28 -33 -39 -40 41 -42 0
28 -33 -39 -40 -41 42 0
-28 33 39 40 41 -42 0
-28 33 39 40 -41 42 0
-28 33 39 -40 41 42 0
-28 33 39 -40 -41 -42 0
-28 33 -39 40 41 42 0
-28 33 -39 40 -41 -42 0
-28 33 -39 -40 41 -42 0
-28 33 -39 -40 -41 42 0
-28 -33 39 40 41 42 0
-28 -33 39 40 -41 -42 0
-28 -33 39 -40 41 -42 0
-28 -33 39 -40 -41 42 0
-28 -33 -39 40 41 -42 0
-28 -33 -39 40 -41 42 0
-28 -33 -39 -40 41 42 0
-28 -33 -39 -40 -41 -42 0
13 29 43 44 45 -46 0
13 29 43 44 -45 46 0
13 29 43 -44 45 46 0
13 29 43 -44 -45 -46 0
13 29 -43 44 45 46 0
13 29 -43 44 -45 -46 0
13 29 -43 -44 45 -46 0
13 29 -43 -44 -45 46 0
13 -29 43 44 45 46 0
13 -29 43 44 -45 -46 0
13 -29 43 -44 45 -46 0
13 -29 43 -44 -45 46 0
13 -29 -43 44 45 -46 0
13 -29 -43 44 -45 46 0
13 -29 -43 -44 45 46 0
13 -29 -43 -44 -45 -46 0
-13 29 43 44 45 46 0
-13 29 43 44 -45 -46 0
-13 29 43 -44 45 -46 0
-13 29 43 -44 -45 46 0
-13 29 -43 44 45 -46 0
-13 29 -43 44 -45 46 0
-13 29 -43 -44 45 46 0
-13 29 -43 -44 -45 -46 0
-13 -29 43 44 45 -46 0
-13 -29 43 44 -45 46 0
-13 -29 43 -44 45 46 0
-13 -29 43 -44 -45 -46 0
-13 -29 -43 44 45 46 0
-13 -29 -43 44 -45 -46 0
-13 -29 -43 -44 45 -46 0
-13 -29 -43 -44 -45 46 0
23 47 48 49 50 51 0
23 47 48 49 -50 -51 0
23 47 48 -49 50 -51 0
23 47 48 -49 -50 51 0
23 47 -48 49 50 -51 0
23 47 -48 49 -50 51 0
23 47 -48 -49 50 51 0
23 47 -48 -49 -50 -51 0
23 -47 48 49 50 -51 0
23 -47 48 49 -50 51 0
23 -47 48 -49 50 51 0
23 -47 48 -49 -50 -51 0
23 -47 -48 49 50 51 0
23 -47 -48 49 -50 -51 0
23 -47 -48 -49 50 -51 0
23 -47 -48 -49 -50 51 0
-23 47 48 49 50 -51 0
-23 47 48 49 -50 51 0
-23 47 48 -49 50 51 0
-23 47 48 -49 -50 -51 0
-23 47 -48 49 50 51 0
-23 47 -48 49 -50 -51 0
-23 47 -48 -49 50 -51 0
-23 47 -48 -49 -50 51 0
-23 -47 48 49 50 51 0
-23 -47 48 49 -50 -51 0
-23 -47 48 -49 50 -51 0
-23 -47 48 -49 -50 51 0
-23 -47 -48 49 50 -51 0
-23 -47 -48 49 -50 51 0
-23 -47 -48 -49 50 51 0
-23 -47 -48 -49 -50 -51 0
3 47 52 53 54 55 0
3 47 52 53 -54 -55 0
3 47 52 -53 54 -55 0
3 47 52 -53 -54 55 0
3 47 -52 53 54 -55 0
3 47 -52 53 -54 55 0
3 47 -52 -53 54 55 0
3 47 -52 -53 -54 -55 0
3 -47 52 53 54 -55 0
3 -47 52 53 -54 55 0
3 -47 52 -53 54 55 0
3 -47 52 -53 -54 -55 0
3 -47 -52 53 54 55 0
3 -47 -52 53 -54 -55 0
3 -47 -52 -53 54 -55 0
3 -47 -52 -53 -54 55 0
-3 47 52 53 54 -55 0
-3 47 52 53 -54 55 0
-3 47 52 -53 54 55 0
-3 47 52 -53 -54 -55 0
-3 47 -52 53 54 55 0
-3 47 -52 53 -54 -55 0
-3 47 -52 -53 54 -55 0
-3 47 -52 -53 -54 55 0
-3 -47 52 53 54 55 0
-3 -47 52 53 -54 -55 0
-3 -47 52 -53 54 -55 0
-3 -47 52 -53 -54 55 0
-3 -47 -52 53 54 -55 0
-3 -47 -52 53 -54 55 0
-3 -47 -52 -53 54 55 0
-3 -47 -52 -53 -54 -55 0
18 24 56 57 58 -59 0
18 24 56 57 -58 59 0
18 24 56 -57 58 59 0
18 24 56 -57 -58 -59 0
18 24 -56 57 58 59 0
18 24 -56 57 -58 -59 0
18 24 -56 -57 58 -59 0
18 24 -56 -57 -58 59 0
18 -24 56 57 58 59 0
18 -24 56 57 -58 -59 0
18 -24 56 -57 58 -59 0
18 -24 56 -57 -58 59 0
18 -24 -56 57 58 -59 0
18 -24 -56 57 -58 59 0
18 -24 -56 -57 58 59 0
18 -24 -56 -57 -58 -59 0
-18 24 56 57 58 59 0
-18 24 56 57 -58 -59 0
-18 24 56 -57 58 -59 0
-18 24 56 -57 -58 59 0
-18 24 -56 57 58 -59 0
-18 24 -56 57 -58 59 0
-18 24 -56 -57 58 59 0
-18 24 -56 -57 -58 -59 0
-18 -24 56 57 58 -59 0
-18 -24 56 57 -58 59 0
-18 -24 56 -57 58 59 0
-18 -24 56 -57 -58 -59 0
-18 -24 -56 57 58 59 0
-18 -24 -56 57 -58 -59 0
-18 -24 -56 -57 58 -59 0
-18 -24 -56 -57 -58 59 0
19 52 60 61 62 63 0
19 52 60 61 -62 -63 0
19 52 60 -61 62 -63 0
19 52 60 -61 -62 63 0
19 52 -60 61 62 -63 0
19 52 -60 61 -62 63 0
19 52 -60 -61 62 63 0
19 52 -60 -61 -62 -63 0
19 -52 60 61 62 -63 0
19 -52 60 61 -62 63 0
19 -52 60 -61 62 63 0
19 -52 60 -61 -62 -63 0
19 -52 -60 61 62 63 0
19 -52 -60 61 -62 -63 0
19 -52 -60 -61 62 -63 0
19 -52 -60 -61 -62 63 0
-19 52 60 61 62 -63 0
-19 52 60 61 -62 63 0
-19 52 60 -61 62 63 0
-19 52 60 -61 -62 -63 0
-19 52 -60 61 62 63 0
-19 52 -60 61 -62 -63 0
-19 52 -60 -61 62 -63 0
-19 52 -60 -61 -62 63 0
-19 -52 60 61 62 63 0
-19 -52 60 61 -62 -63 0
-19 -52 60 -61 62 -63 0
-19 -52 60 -61 -62 63 0
-19 -52 -60 61 62 -63 0
-19 -52 -60 61 -62 63 0
-19 -52 -60 -61 62 63 0
-19 -52 -60 -61 -62 -63 0
30 48 64 65 66 67 0
30 48 64 65 -66 -67 0
30 48 64 -65 66 -67 0
30 48 64 -65 -66 67 0
30 48 -64 65 66 -67 0
30 48 -64 65 -66 67 0
30 48 -64 -65 66 67 0
30 48 -64 -65 -66 -67 0
30 -48 64 65 66 -67 0
30 -48 64 65 -66 67 0
30 -48 64 -65 66 67 0
30 -48 64 -65 -66 -67 0
30 -48 -64 65 66 67 0
30 -48 -64 65 -66 -67 0
30 -48 -64 -65 66 -67 0
30 -48 -64 -65 -66 67 0
-30 48 64 65 66 -67 0
-30 48 64 65 -66 67 0
-30 48 64 -65 66 67 0
-30 48 64 -65 -66 -67 0
-30 48 -64 65 66 67 0
-30 48 -64 65 -66 -67 0
-30 48 -64 -65 66 -67 0
-30 48 -64 -65 -66 67 0
-30 -48 64 65 66 67 0
-30 -48 64 65 -66 -67 0
-30 -48 64 -65 66 -67 0
-30 -48 64 -65 -66 67 0
-30 -48 -64 65 66 -67 0
-30 -48 -64 65 -66 67 0
-30 -48 -64 -65 66 67 0
-30 -48 -64 -65 -66 -67 0
25 34 64 68 69 -70 0
25 34 64 68 -69 70 0
25 34 64 -68 69 70 0
25 34 64 -68 -69 -70 0
25 34 -64 68 69 70 0
25 34 -64 68 -69 -70 0
25 34 -64 -68 69 -70 0
25 34 -64 -68 -69 70 0
25 -34 64 68 69 70 0
25 -34 64 68 -69 -70 0
25 -34 64 -68 69 -70 0
25 -34 64 -68 -69 70 0
25 -34 -64 68 69 -70 0
25 -34 -64 68 -69 70 0
25 -34 -64 -68 69 70 0
25 -34 -64 -68 -69 -70 0
-25 34 64 68 69 70 0
-25 34 64 68 -69 -70 0
-25 34 64 -68 69 -70 0
-25 34 64 -68 -69 70 0
-25 34 -64 68 69 -70 0
-25 34 -64 68 -69 70 0
-25 34 -64 -68 69 70 0
-25 34 -64 -68 -69 -70 0
-25 -34 64 68 69 -70 0
-25 -34 64 68 -69 70 0
-25 -34 64 -68 69 70 0
-25 -34 64 -68 -69 -70 0
-25 -34 -64 68 69 70 0
-25 -34 -64 68 -69 -70 0
-25 -34 -64 -68 69 -70 0
-25 -34 -64 -68 -69 70 0
14 43 71 72 73 -74 0
14 43 71 72 -73 74 0
14 43 71 -72 73 74 0
14 43 71 -72 -73 -74 0
14 43 -71 72 73 74 0
14 43 -71 72 -73 -74 0
14 43 -71 -72 73 -74 0
14 43 -71 -72 -73 74 0
14 -43 71 72 73 74 0
14 -43 71 72 -73 -74 0
14 -43 71 -72 73 -74 0
14 -43 71 -72 -73 74 0
14 -43 -71 72 73 -74 0
14 -43 -71 72 -73 74 0
14 -43 -71 -72 73 74 0
14 -43 -71 -72 -73 -74 0
-14 43 71 72 73 74 0
-14 43 71 72 -73 -74 0
-14 43 71 -72 73 -74 0
-14 43 71 -72 -73 74 0
-14 43 -71 72 73 -74 0
-14 43 -71 72 -73 74 0
-14 43 -71 -72 73 74 0
-14 43 -71 -72 -73 -74 0
-14 -43 71 72 73 -74 0
-14 -43 71 72 -73 74 0
-14 -43 71 -72 73 74 0
-14 -43 71 -72 -73 -74 0
-14 -43 -71 72 73 74 0
-14 -43 -71 72 -73 -74 0
-14 -43 -71 -72 73 -74 0
-14 -43 -71 -72 -73 74 0
15 20 44 68 75 76 0
15 20 44 68 -75 -76 0
15 20 44 -68 75 -76 0
15 20 44 -68 -75 76 0
15 20 -44 68 75 -76 0
15 20 -44 68 -75 76 0
15 20 -44 -68 75 76 0
15 20 -44 -68 -75 -76 0
15 -20 44 68 75 -76 0
15 -20 44 68 -75 76 0
15 -20 44 -68 75 76 0
15 -20 44 -68 -75 -76 0
15 -20 -44 68 75 76 0
15 -20 -44 68 -75 -76 0
15 -20 -44 -68 75 -76 0
15 -20 -44 -68 -75 76 0
-15 20 44 68 75 -76 0
-15 20 44 68 -75 76 0
-15 20 44 -68 75 76 0
-15 20 44 -68 -75 -76 0
-15 20 -44 68 75 76 0
-15 20 -44 68 -75 -76 0
-15 20 -44 -68 75 -76 0
-15 20 -44 -68 -75 76 0
-15 -20 44 68 75 76 0
-15 -20 44 68 -75 -76 0
-15 -20 44 -68 75 -76 0
-15 -20 44 -68 -75 76 0
-15 -20 -44 68 75 -76 0
-15 -20 -44 68 -75 76 0
-15 -20 -44 -68 75 76 0
-15 -20 -44 -68 -75 -76 0
9 39 45 53 56 -75 0
9 39 45 53 -56 75 0
9 39 45 -53 56 75 0
9 39 45 -53 -56 -75 0
9 39 -45 53 56 75 0
9 39 -45 53 -56 -75 0
9 39 -45 -53 56 -75 0
9 39 -45 -53 -56 75 0
9 -39 45 53 56 75 0
9 -39 45 53 -56 -75 0
9 -39 45 -53 56 -75 0
9 -39 45 -53 -56 75 0
9 -39 -45 53 56 -75 0
9 -39 -45 53 -56 75 0
9 -39 -45 -53 56 75 0
9 -39 -45 -53 -56 -75 0
-9 39 45 53 56 75 0
-9 39 45 53 -56 -75 0
-9 39 45 -53 56 -75 0
-9 39 45 -53 -56 75 0
-9 39 -45 53 56 -75 0
-9 39 -45 53 -56 75 0
-9 39 -45 -53 56 75 0
-9 39 -45 -53 -56 -75 0
-9 -39 45 53 56 -75 0
-9 -39 45 53 -56 75 0
-9 -39 45 -53 56 75 0
-9 -39 45 -53 -56 -75 0
-9 -39 -45 53 56 75 0
-9 -39 -45 53 -56 -75 0
-9 -39 -45 -53 56 -75 0
-9 -39 -45 -53 -56 75 0
4 21 35 57 65 -77 0
4 21 35 57 -65 77 0
4 21 35 -57 65 77 0
4 21 35 -57 -65 -77 0
4 21 -35 57 65 77 0
4 21 -35 57 -65 -77 0
4 21 -35 -57 65 -77 0
4 21 -35 -57 -65 77 0
4 -21 35 57 65 77 0
4 -21 35 57 -65 -77 0
4 -21 35 -57 65 -77 0
4 -21 35 -57 -65 77 0
4 -21 -35 57 65 -77 0
4 -21 -35 57 -65 77 0
4 -21 -35 -57 65 77 0
4 -21 -35 -57 -65 -77 0
-4 21 35 57 65 77 0
-4 21 35 57 -65 -77 0
-4 21 35 -57 65 -77 0
-4 21 35 -57 -65 77 0
-4 21 -35 57 65 -77 0
-4 21 -35 57 -65 77 0
-4 21 -35 -57 65 77 0
-4 21 -35 -57 -65 -77 0
-4 -21 35 57 65 -77 0
-4 -21 35 57 -65 77 0
-4 -21 35 -57 65 77 0
-4 -21 35 -57 -65 -77 0
-4 -21 -35 57 65 77 0
-4 -21 -35 57 -65 -77 0
-4 -21 -35 -57 65 -77 0
-4 -21 -35 -57 -65 77 0
16 31 36 58 71 -78 0
16 31 36 58 -71 78 0
16 31 36 -58 71 78 0
16 31 36 -58 -71 -78 0
16 31 -36 58 71 78 0
16 31 -36 58 -71 -78 0
16 31 -36 -58 71 -78 0
16 31 -36 -58 -71 78 0
16 -31 36 58 71 78 0
16 -31 36 58 -71 -78 0
16 -31 36 -58 71 -78 0
16 -31 36 -58 -71 78 0
16 -31 -36 58 71 -78 0
16 -31 -36 58 -71 78 0
16 -31 -36 -58 71 78 0
16 -31 -36 -58 -71 -78 0
-16 31 36 58 71 78 0
-16 31 36 58 -71 -78 0
-16 31 36 -58 71 -78 0
-16 31 36 -58 -71 78 0
-16 31 -36 58 71 -78 0
-16 31 -36 58 -71 78 0
-16 31 -36 -58 71 78 0
-16 31 -36 -58 -71 -78 0
-16 -31 36 58 71 -78 0
-16 -31 36 58 -71 78 0
-16 -31 36 -58 71 78 0
-16 -31 36 -58 -71 -78 0
-16 -31 -36 58 71 78 0
-16 -31 -36 58 -71 -78 0
-16 -31 -36 -58 71 -78 0
-16 -31 -36 -58 -71 78 0
10 32 37 69 72 76 0
10 32 37 69 -72 -76 0
10 32 37 -69 72 -76 0
10 32 37 -69 -72 76 0
10 32 -37 69 72 -76 0
10 32 -37 69 -72 76 0
10 32 -37 -69 72 76 0
10 32 -37 -69 -72 -76 0
10 -32 37 69 72 -76 0
10 -32 37 69 -72 76 0
10 -32 37 -69 72 76 0
10 -32 37 -69 -72 -76 0
10 -32 -37 69 72 76 0
10 -32 -37 69 -72 -76 0
10 -32 -37 -69 72 -76 0
10 -32 -37 -69 -72 76 0
-10 32 37 69 72 -76 0
-10 32 37 69 -72 76 0
-10 32 37 -69 72 76 0
-10 32 37 -69 -72 -76 0
-10 32 -37 69 72 76 0
-10 32 -37 69 -72 -76 0
-10 32 -37 -69 72 -76 0
-10 32 -37 -69 -72 76 0
-10 -32 37 69 72 76 0
-10 -32 37 69 -72 -76 0
-10 -32 37 -69 72 -76 0
-10 -32 37 -69 -72 76 0
-10 -32 -37 69 72 -76 0
-10 -32 -37 69 -72 76 0
-10 -32 -37 -69 72 76 0
-10 -32 -37 -69 -72 -76 0
22 40 59 60 66 73 0
22 40 59 60 -66 -73 0
22 40 59 -60 66 -73 0
22 40 59 -60 -66 73 0
22 40 -59 60 66 -73 0
22 40 -59 60 -66 73 0
22 40 -59 -60 66 73 0
22 40 -59 -60 -66 -73 0
22 -40 59 60 66 -73 0
22 -40 59 60 -66 73 0
22 -40 59 -60 66 73 0
22 -40 59 -60 -66 -73 0
22 -40 -59 60 66 73 0
22 -40 -59 60 -66 -73 0
22 -40 -59 -60 66 -73 0
22 -40 -59 -60 -66 73 0
-22 40 59 60 66 -73 0
-22 40 59 60 -66 73 0
-22 40 59 -60 66 73 0
-22 40 59 -60 -66 -73 0
-22 40 -59 60 66 73 0
-22 40 -59 60 -66 -73 0
-22 40 -59 -60 66 -73 0
-22 40 -59 -60 -66 73 0
-22 -40 59 60 66 73 0
-22 -40 59 60 -66 -73 0
-22 -40 59 -60 66 -73 0
-22 -40 59 -60 -66 73 0
-22 -40 -59 60 66 -73 0
-22 -40 -59 60 -66 73 0
-22 -40 -59 -60 66 73 0
-22 -40 -59 -60 -66 -73 0
11 26 54 61 67 79 0
11 26 54 61 -67 -79 0
11 26 54 -61 67 -79 0
11 26 54 -61 -67 79 0
11 26 -54 61 67 -79 0
11 26 -54 61 -67 79 0
11 26 -54 -61 67 79 0
11 26 -54 -61 -67 -79 0
11 -26 54 61 67 -79 0
11 -26 54 61 -67 79 0
11 -26 54 -61 67 79 0
11 -26 54 -61 -67 -79 0
11 -26 -54 61 67 79 0
11 -26 -54 61 -67 -79 0
11 -26 -54 -61 67 -79 0
11 -26 -54 -61 -67 79 0
-11 26 54 61 67 -79 0
-11 26 54 61 -67 79 0
-11 26 54 -61 67 79 0
-11 26 54 -61 -67 -79 0
-11 26 -54 61 67 79 0
-11 26 -54 61 -67 -79 0
-11 26 -54 -61 67 -79 0
-11 26 -54 -61 -67 79 0
-11 -26 54 61 67 79 0
-11 -26 54 61 -67 -79 0
-11 -26 54 -61 67 -79 0
-11 -26 54 -61 -67 79 0
-11 -26 -54 61 67 -79 0
-11 -26 -54 61 -67 79 0
-11 -26 -54 -61 67 79 0
-11 -26 -54 -61 -67 -79 0
5 49 55 62 77 80 0
5 49 55 62 -77 -80 0
5 49 55 -62 77 -80 0
5 49 55 -62 -77 80 0
5 49 -55 62 77 -80 0
5 49 -55 62 -77 80 0
5 49 -55 -62 77 80 0
5 49 -55 -62 -77 -80 0
5 -49 55 62 77 -80 0
5 -49 55 62 -77 80 0
5 -49 55 -62 77 80 0
5 -49 55 -62 -77 -80 0
5 -49 -55 62 77 80 0
5 -49 -55 62 -77 -80 0
5 -49 -55 -62 77 -80 0
5 -49 -55 -62 -77 80 0
-5 49 55 62 77 -80 0
-5 49 55 62 -77 80 0
-5 49 55 -62 77 80 0
-5 49 55 -62 -77 -80 0
-5 49 -55 62 77 80 0
-5 49 -55 62 -77 -80 0
-5 49 -55 -62 77 -80 0
-5 49 -55 -62 -77 80 0
-5 -49 55 62 77 80 0
-5 -49 55 62 -77 -80 0
-5 -49 55 -62 77 -80 0
-5 -49 55 -62 -77 80 0
-5 -49 -55 62 77 -80 0
-5 -49 -55 62 -77 80 0
-5 -49 -55 -62 77 80 0
-5 -49 -55 -62 -77 -80 0
12 50 74 79 80 -81 0
12 50 74 79 -80 81 0
12 50 74 -79 80 81 0
12 50 74 -79 -80 -81 0
12 50 -74 79 80 81 0
12 50 -74 79 -80 -81 0
12 50 -74 -79 80 -81 0
12 50 -74 -79 -80 81 0
12 -50 74 79 80 81 0
12 -50 74 79 -80 -81 0
12 -50 74 -79 80 -81 0
12 -50 74 -79 -80 81 0
12 -50 -74 79 80 -81 0
12 -50 -74 79 -80 81 0
12 -50 -74 -79 80 81 0
12 -50 -74 -79 -80 -81 0
-12 50 74 79 80 81 0
-12 50 74 79 -80 -81 0
-12 50 74 -79 80 -81 0
-12 50 74 -79 -80 81 0
-12 50 -74 79 80 -81 0
-12 50 -74 79 -80 81 0
-12 50 -74 -79 80 81 0
-12 50 -74 -79 -80 -81 0
-12 -50 74 79 80 -81 0
-12 -50 74 79 -80 81 0
-12 -50 74 -79 80 81 0
-12 -50 74 -79 -80 -81 0
-12 -50 -74 79 80 81 0
-12 -50 -74 79 -80 -81 0
-12 -50 -74 -79 80 -81 0
-12 -50 -74 -79 -80 81 0
6 27 38 41 51 -70 0
6 27 38 41 -51 70 0
6 27 38 -41 51 70 0
6 27 38 -41 -51 -70 0
6 27 -38 41 51 70 0
6 27 -38 41 -51 -70 0
6 27 -38 -41 51 -70 0
6 27 -38 -41 -51 70 0
6 -27 38 41 51 70 0
6 -27 38 41 -51 -70 0
6 -27 38 -41 51 -70 0
6 -27 38 -41 -51 70 0
6 -27 -38 41 51 -70 0
6 -27 -38 41 -51 70 0
6 -27 -38 -41 51 70 0
6 -27 -38 -41 -51 -70 0
-6 27 38 41 51 70 0
-6 27 38 41 -51 -70 0
-6 27 38 -41 51 -70 0
-6 27 38 -41 -51 70 0
-6 27 -38 41 51 -70 0
-6 27 -38 41 -51 70 0
-6 27 -38 -41 51 70 0
-6 27 -38 -41 -51 -70 0
-6 -27 38 41 51 -70 0
-6 -27 38 41 -51 70 0
-6 -27 38 -41 51 70 0
-6 -27 38 -41 -51 -70 0
-6 -27 -38 41 51 70 0
-6 -27 -38 41 -51 -70 0
-6 -27 -38 -41 51 -70 0
-6 -27 -38 -41 -51 70 0
17 42 46 63 78 81 0
17 42 46 63 -78 -81 0
17 42 46 -63 78 -81 0
17 42 46 -63 -78 81 0
17 42 -46 63 78 -81 0
17 42 -46 63 -78 81 0
17 42 -46 -63 78 81 0
17 42 -46 -63 -78 -81 0
17 -42 46 63 78 -81 0
17 -42 46 63 -78 81 0
17 -42 46 -63 78 81 0
17 -42 46 -63 -78 -81 0
17 -42 -46 63 78 81 0
17 -42 -46 63 -78 -81 0
17 -42 -46 -63 78 -81 0
17 -42 -46 -63 -78 81 0
-17 42 46 63 78 -81 0
-17 42 46 63 -78 81 0
-17 42 46 -63 78 81 0
-17 42 46 -63 -78 -81 0
-17 42 -46 63 78 81 0
-17 42 -46 63 -78 -81 0
-17 42 -46 -63 78 -81 0
-17 42 -46 -63 -78 81 0
-17 -42 46 63 78 81 0
-17 -42 46 63 -78 -81 0
-17 -42 46 -63 78 -81 0
-17 -42 46 -63 -78 81 0
-17 -42 -46 63 78 -81 0
-17 -42 -46 63 -78 81 0
-17 -42 -46 -63 78 81 0
-17 -42 -46 -63 -78 -81 0
